c n orig vars 49
p cnf 85 138
-75 0
50 -11 0
50 -31 0
-50 11 31 0
51 -10 0
51 -9 0
-51 10 9 0
52 -46 0
52 -12 0
52 -50 0
-52 46 12 50 0
-53 51 0
-53 58 0
53 -51 -58 0
54 -52 0
54 -38 0
54 -45 0
54 -53 0
-54 52 38 45 53 0
55 -52 0
55 -6 0
55 -5 0
55 -53 0
-55 52 6 5 53 0
-56 54 0
-56 55 0
56 -54 -55 0
-57 59 0
-57 71 0
-57 70 0
57 -59 -71 -70 0
58 -8 0
58 -7 0
-58 8 7 0
59 -73 0
59 -20 0
59 -19 0
59 -72 0
-59 73 20 19 72 0
60 -33 0
60 -29 0
60 -67 0
-60 33 29 67 0
61 -60 0
61 -15 0
61 -18 0
61 -68 0
-61 60 15 18 68 0
62 -60 0
62 -13 0
62 -16 0
62 -68 0
-62 60 13 16 68 0
63 -60 0
63 -32 0
63 -34 0
63 -68 0
-63 60 32 34 68 0
-64 83 0
-64 82 0
-64 81 0
64 -83 -82 -81 0
-65 63 0
-65 62 0
-65 61 0
65 -63 -62 -61 0
-66 65 0
-66 64 0
66 -65 -64 0
67 -28 0
67 -31 0
-67 28 31 0
-68 85 0
-68 84 0
68 -85 -84 0
-75 66 0
-75 76 0
75 -66 -76 0
70 -73 0
70 -43 0
70 -44 0
70 -72 0
-70 73 43 44 72 0
71 -73 0
71 -39 0
71 -40 0
71 -72 0
-71 73 39 40 72 0
72 -69 0
72 -74 0
-72 69 74 0
73 -37 0
73 -25 0
73 -50 0
-73 37 25 50 0
74 -41 0
74 -42 0
-74 41 42 0
69 -35 0
69 -36 0
-69 35 36 0
-76 56 0
-76 57 0
76 -56 -57 0
77 -22 0
77 -1 0
-77 22 1 0
78 -21 0
78 -24 0
-78 21 24 0
-79 78 0
-79 77 0
79 -78 -77 0
80 -3 0
80 -23 0
80 -67 0
-80 3 23 67 0
81 -80 0
81 -48 0
81 -2 0
81 -79 0
-81 80 48 2 79 0
82 -80 0
82 -47 0
82 -27 0
82 -79 0
-82 80 47 27 79 0
83 -80 0
83 -17 0
83 -4 0
83 -79 0
-83 80 17 4 79 0
84 -26 0
84 -14 0
-84 26 14 0
85 -30 0
85 -49 0
-85 30 49 0
